c Random CNF formula
p cnf 200 50
113 -80 -103 0
176 179 124 0
184 -67 -34 0
198 152 -121 0
24 -136 -181 0
61 -122 82 0
-180 -171 87 0
-111 72 -47 0
-7 -119 -114 0
117 22 -8 0
-146 -163 -49 0
-71 -86 168 0
-158 1 -112 0
-139 198 29 0
54 93 92 0
-135 -46 -128 0
-122 65 3 0
-61 161 84 0
-114 130 190 0
151 179 -16 0
-111 183 -116 0
42 -148 83 0
54 141 165 0
-33 50 -82 0
-197 167 -74 0
16 23 -134 0
26 150 -183 0
-166 -51 -95 0
173 2 43 0
-114 -32 113 0
22 78 27 0
164 -96 179 0
-66 -58 8 0
80 -74 -35 0
54 -166 110 0
5 -169 25 0
129 -87 155 0
-25 -53 -102 0
165 200 170 0
-123 195 -84 0
-186 -98 -43 0
26 -172 -148 0
-123 144 169 0
-146 -97 -98 0
-72 -103 -27 0
124 -142 -107 0
-159 -160 -167 0
-97 -169 176 0
163 41 -75 0
68 60 -46 0
